(set-logic QF_S)
(declare-fun var0 () String)
(declare-fun var1 () String)
(declare-fun var2 () Int)
(declare-fun var3 () String)
(declare-fun var4 () String)
(declare-fun var5 () Int)
(declare-fun var6 () Int)
(assert (< (str.len var0) (str.indexof "$4NAl" var1 var2)))
(assert (> (str.len var3) (str.len var4)))
(assert (str.in.re (str.replace var1 var4 "lVbbj.%") (re.* re.allchar)))
(assert (< var5 var6))
(check-sat)